c *********************************
c * Circuit generated by BenCGen
c *
c * Parity_61
c *
c * Ports with 1 gate(s): 1
c * Ports with 2 gate(s): 61
c * Total gates: 62
c *********************************
p cnf 123 245
1 64 0
-1 -64 0
1 -63 0
64 -63 0
-1 -64 63 0
1 2 -65 0
-1 2 65 0
1 -2 65 0
-1 -2 -65 0
3 4 -66 0
-3 4 66 0
3 -4 66 0
-3 -4 -66 0
5 6 -67 0
-5 6 67 0
5 -6 67 0
-5 -6 -67 0
7 8 -68 0
-7 8 68 0
7 -8 68 0
-7 -8 -68 0
9 10 -69 0
-9 10 69 0
9 -10 69 0
-9 -10 -69 0
11 12 -70 0
-11 12 70 0
11 -12 70 0
-11 -12 -70 0
13 14 -71 0
-13 14 71 0
13 -14 71 0
-13 -14 -71 0
15 16 -72 0
-15 16 72 0
15 -16 72 0
-15 -16 -72 0
17 18 -73 0
-17 18 73 0
17 -18 73 0
-17 -18 -73 0
19 20 -74 0
-19 20 74 0
19 -20 74 0
-19 -20 -74 0
21 22 -75 0
-21 22 75 0
21 -22 75 0
-21 -22 -75 0
23 24 -76 0
-23 24 76 0
23 -24 76 0
-23 -24 -76 0
25 26 -77 0
-25 26 77 0
25 -26 77 0
-25 -26 -77 0
27 28 -78 0
-27 28 78 0
27 -28 78 0
-27 -28 -78 0
29 30 -79 0
-29 30 79 0
29 -30 79 0
-29 -30 -79 0
31 32 -80 0
-31 32 80 0
31 -32 80 0
-31 -32 -80 0
33 34 -81 0
-33 34 81 0
33 -34 81 0
-33 -34 -81 0
35 36 -82 0
-35 36 82 0
35 -36 82 0
-35 -36 -82 0
37 38 -83 0
-37 38 83 0
37 -38 83 0
-37 -38 -83 0
39 40 -84 0
-39 40 84 0
39 -40 84 0
-39 -40 -84 0
41 42 -85 0
-41 42 85 0
41 -42 85 0
-41 -42 -85 0
43 44 -86 0
-43 44 86 0
43 -44 86 0
-43 -44 -86 0
45 46 -87 0
-45 46 87 0
45 -46 87 0
-45 -46 -87 0
47 48 -88 0
-47 48 88 0
47 -48 88 0
-47 -48 -88 0
49 50 -89 0
-49 50 89 0
49 -50 89 0
-49 -50 -89 0
51 52 -90 0
-51 52 90 0
51 -52 90 0
-51 -52 -90 0
53 54 -91 0
-53 54 91 0
53 -54 91 0
-53 -54 -91 0
55 56 -92 0
-55 56 92 0
55 -56 92 0
-55 -56 -92 0
57 58 -93 0
-57 58 93 0
57 -58 93 0
-57 -58 -93 0
59 60 -94 0
-59 60 94 0
59 -60 94 0
-59 -60 -94 0
65 66 -95 0
-65 66 95 0
65 -66 95 0
-65 -66 -95 0
67 68 -96 0
-67 68 96 0
67 -68 96 0
-67 -68 -96 0
69 70 -97 0
-69 70 97 0
69 -70 97 0
-69 -70 -97 0
71 72 -98 0
-71 72 98 0
71 -72 98 0
-71 -72 -98 0
73 74 -99 0
-73 74 99 0
73 -74 99 0
-73 -74 -99 0
75 76 -100 0
-75 76 100 0
75 -76 100 0
-75 -76 -100 0
77 78 -101 0
-77 78 101 0
77 -78 101 0
-77 -78 -101 0
79 80 -102 0
-79 80 102 0
79 -80 102 0
-79 -80 -102 0
81 82 -103 0
-81 82 103 0
81 -82 103 0
-81 -82 -103 0
83 84 -104 0
-83 84 104 0
83 -84 104 0
-83 -84 -104 0
85 86 -105 0
-85 86 105 0
85 -86 105 0
-85 -86 -105 0
87 88 -106 0
-87 88 106 0
87 -88 106 0
-87 -88 -106 0
89 90 -107 0
-89 90 107 0
89 -90 107 0
-89 -90 -107 0
91 92 -108 0
-91 92 108 0
91 -92 108 0
-91 -92 -108 0
93 94 -109 0
-93 94 109 0
93 -94 109 0
-93 -94 -109 0
95 96 -110 0
-95 96 110 0
95 -96 110 0
-95 -96 -110 0
97 98 -111 0
-97 98 111 0
97 -98 111 0
-97 -98 -111 0
99 100 -112 0
-99 100 112 0
99 -100 112 0
-99 -100 -112 0
101 102 -113 0
-101 102 113 0
101 -102 113 0
-101 -102 -113 0
103 104 -114 0
-103 104 114 0
103 -104 114 0
-103 -104 -114 0
105 106 -115 0
-105 106 115 0
105 -106 115 0
-105 -106 -115 0
107 108 -116 0
-107 108 116 0
107 -108 116 0
-107 -108 -116 0
109 61 -117 0
-109 61 117 0
109 -61 117 0
-109 -61 -117 0
110 111 -118 0
-110 111 118 0
110 -111 118 0
-110 -111 -118 0
112 113 -119 0
-112 113 119 0
112 -113 119 0
-112 -113 -119 0
114 115 -120 0
-114 115 120 0
114 -115 120 0
-114 -115 -120 0
116 117 -121 0
-116 117 121 0
116 -117 121 0
-116 -117 -121 0
118 119 -122 0
-118 119 122 0
118 -119 122 0
-118 -119 -122 0
120 121 -123 0
-120 121 123 0
120 -121 123 0
-120 -121 -123 0
122 123 -62 0
-122 123 62 0
122 -123 62 0
-122 -123 -62 0
